// Mesh
SetGridSize(1, 1, 1)
SetCellSize(1e-09, 1e-09, 1e-09)

// Magnetisation
m.LoadFile("m0.omf")
Msat.setregion(0, 1000000.0)

regions.LoadFile("mumax3_regions.omf")

// Zeeman
B_ext = vector(0.0, 0.0, 1.2566370614359172)
enabledemag = false

alpha = 0
doprecess = false
setsolver(5)
fixDt = 0.0

tableadd(E_total)
tableadd(E_exch)
tableadd(E_demag)
tableadd(E_zeeman)
tableadd(E_anis)
tableadd(dt)
tableadd(maxtorque)
for snap_counter:=0; snap_counter<1; snap_counter++{
    run(1e-12)
    save(m_full)
    tablesave()
}
